2 20
377 587 
0 40 30 58 48 56 99 1
1 54 44 31 21 33 84 1
2 72 62 107 97 21 31 1
3 15 5 23 13 48 32 1
4 94 84 65 55 63 76 2
5 80 70 81 71 93 91 2
6 103 93 50 40 6 20 2
7 12 2 97 87 98 12 1
8 20 10 71 61 70 5 2
9 42 32 110 100 52 26 1
10 58 48 104 94 22 54 1
11 69 59 78 68 48 12 2
12 85 75 12 2 33 11 1
13 74 64 30 20 70 26 2
14 20 10 58 48 48 59 1
15 40 30 80 70 100 25 2
16 21 11 88 78 45 18 2
17 11 1 63 53 58 64 2
18 34 24 89 79 18 74 1
19 11 1 79 69 21 40 2
